NAME: ACTUAL_TOURS/amz2073
TYPE: TOUR
COMMENT: RouteID_dc4f3382-3209-4c7e-85ff-aa5010fbbaf5
DIMENSION: 186
TOUR_SECTION
119
152
56
65
140
100
89
40
7
13
154
67
79
72
55
175
151
9
59
112
145
129
84
74
2
102
91
97
78
110
80
62
179
57
116
52
6
37
46
94
107
17
128
143
135
19
88
121
24
150
161
118
167
147
125
71
30
158
185
183
105
41
171
68
66
1
44
134
127
47
81
82
186
38
36
21
42
172
114
61
139
120
177
90
113
157
48
3
98
132
11
176
50
111
15
63
156
10
92
108
28
31
53
33
73
39
27
32
136
182
96
142
181
149
131
115
26
141
95
180
103
87
70
130
23
101
148
124
20
106
8
12
5
170
144
25
173
77
137
64
22
49
60
51
133
29
43
58
35
184
160
122
164
166
14
155
45
76
93
174
54
117
162
34
138
123
75
168
165
169
99
146
126
163
159
153
83
109
85
18
16
104
86
4
69
178
-1
EOF
